8 0 4 6 2 5 1 3 7 0 205
999999999 25 71 57 44 14 30 16 
25 999999999 60 24 77 7 61 90 
71 60 999999999 42 67 18 15 56 
57 24 42 999999999 87 39 58 50 
44 77 67 87 999999999 72 31 75 
14 7 18 39 72 999999999 5 71 
30 61 15 58 31 5 999999999 14 
16 90 56 50 75 71 14 999999999 
